15
2 1 1
3 0 5
3 2 1
4 0 4
4 3 3
5 1 4
5 2 2
5 4 4
6 0 2
6 2 2
6 5 3
7 2 2
7 3 2
7 5 4
8 2 1
8 3 5
8 6 3
8 7 5
9 0 1
9 1 1
9 2 4
9 3 2
9 4 5
9 8 2
10 1 1
10 3 1
10 4 2
10 5 2
10 6 3
10 7 1
11 1 5
11 2 1
11 7 4
11 8 1
11 10 4
12 0 5
12 1 4
12 2 2
12 3 2
12 5 2
12 6 4
12 7 1
12 8 1
12 9 2
12 10 1
12 11 2
13 0 4
13 1 5
13 3 5
13 4 3
13 6 4
13 8 1
13 12 1
14 0 4
14 2 5
14 3 5
14 7 1
14 8 5
14 9 1
14 10 3
14 11 4
14 13 3
